# Generated by ConicBenchmarkUtilities.jl
VER
2

OBJSENSE
MIN

VAR
271 1
F 271

INT
94
11
12
13
14
15
16
17
18
19
20
21
22
23
24
25
26
27
28
29
30
31
32
33
34
56
57
58
59
60
61
62
63
64
65
66
67
68
69
70
71
72
73
74
75
76
77
78
79
80
81
82
83
84
85
154
155
156
157
158
159
160
161
163
164
165
167
168
169
171
172
173
175
176
177
179
180
181
183
184
185
187
188
189
191
192
193
194
195
196
197
198
199
200
201

CON
835 795
L= 1
L= 1
L= 1
L= 1
L= 1
L= 1
L= 1
L= 1
L= 1
L= 1
L= 1
L= 1
L= 1
L= 1
L= 1
L= 1
L= 1
L= 1
L= 1
L= 1
L= 1
L= 1
L= 1
L= 1
L= 1
L= 1
L= 1
L= 1
L= 1
L= 1
L= 1
L= 1
L= 1
L= 1
L= 1
L= 1
L+ 1
L+ 1
L+ 1
L+ 1
L+ 1
L+ 1
L+ 1
L+ 1
L+ 1
L+ 1
L+ 1
L= 1
L= 1
L= 1
L= 1
L= 1
L= 1
L= 1
L= 1
L= 1
L= 1
L= 1
L= 1
L= 1
L= 1
L= 1
L= 1
L= 1
L= 1
L= 1
L= 1
L+ 1
L+ 1
L+ 1
L+ 1
L+ 1
L+ 1
L+ 1
L+ 1
L+ 1
L+ 1
L+ 1
L+ 1
L+ 1
L+ 1
L+ 1
L+ 1
L+ 1
L+ 1
L+ 1
L+ 1
L+ 1
L+ 1
L+ 1
L+ 1
L+ 1
L+ 1
L+ 1
L+ 1
L+ 1
L+ 1
L+ 1
L+ 1
L+ 1
L+ 1
L+ 1
L+ 1
L+ 1
L+ 1
L+ 1
L+ 1
L+ 1
L+ 1
L+ 1
L+ 1
L+ 1
L+ 1
L+ 1
L+ 1
L+ 1
L+ 1
L+ 1
L+ 1
L+ 1
L+ 1
L+ 1
L+ 1
L+ 1
L+ 1
L+ 1
L+ 1
L+ 1
L+ 1
L+ 1
L+ 1
L+ 1
L+ 1
L+ 1
L+ 1
L+ 1
L+ 1
L+ 1
L+ 1
L+ 1
L+ 1
L+ 1
L+ 1
L+ 1
L+ 1
L+ 1
L+ 1
L+ 1
L+ 1
L+ 1
L+ 1
L+ 1
L+ 1
L+ 1
L+ 1
L+ 1
L+ 1
L+ 1
L+ 1
L+ 1
L+ 1
L+ 1
L+ 1
L+ 1
L+ 1
L+ 1
L+ 1
L+ 1
L+ 1
L+ 1
L+ 1
L+ 1
L+ 1
L+ 1
L+ 1
L+ 1
L+ 1
L+ 1
L+ 1
L+ 1
L+ 1
L+ 1
L+ 1
L+ 1
L+ 1
L+ 1
L+ 1
L+ 1
L+ 1
L+ 1
L+ 1
L+ 1
L+ 1
L+ 1
L+ 1
L+ 1
L+ 1
L+ 1
L+ 1
L+ 1
L+ 1
L+ 1
L+ 1
L+ 1
L+ 1
L+ 1
L+ 1
L+ 1
L+ 1
L+ 1
L+ 1
L+ 1
L+ 1
L+ 1
L+ 1
L+ 1
L+ 1
L+ 1
L+ 1
L+ 1
L+ 1
L+ 1
L+ 1
L+ 1
L+ 1
L+ 1
L+ 1
L+ 1
L+ 1
L+ 1
L+ 1
L+ 1
L+ 1
L+ 1
L+ 1
L+ 1
L+ 1
L+ 1
L+ 1
L+ 1
L+ 1
L+ 1
L+ 1
L+ 1
L+ 1
L+ 1
L+ 1
L= 1
L= 1
L= 1
L= 1
L= 1
L= 1
L= 1
L= 1
L= 1
L= 1
L= 1
L= 1
L= 1
L= 1
L= 1
L= 1
L= 1
L= 1
L= 1
L= 1
L= 1
L= 1
L= 1
L= 1
L= 1
L= 1
L= 1
L= 1
L= 1
EXP 3
L+ 1
L+ 1
L+ 1
EXP 3
L+ 1
L+ 1
L+ 1
L+ 1
L+ 1
L+ 1
L+ 1
EXP 3
L+ 1
L+ 1
L+ 1
L+ 1
L+ 1
L+ 1
L+ 1
L+ 1
L+ 1
L+ 1
EXP 3
L+ 1
L+ 1
L+ 1
EXP 3
L+ 1
L+ 1
L+ 1
EXP 3
L+ 1
L+ 1
L+ 1
L+ 1
L+ 1
L+ 1
L+ 1
L+ 1
L+ 1
L+ 1
L+ 1
EXP 3
L+ 1
L+ 1
L+ 1
L+ 1
L+ 1
L+ 1
L+ 1
L+ 1
L+ 1
L+ 1
EXP 3
L+ 1
L+ 1
L+ 1
EXP 3
L+ 1
L+ 1
L+ 1
EXP 3
L+ 1
EXP 3
L+ 1
L+ 1
L+ 1
L+ 1
L+ 1
L+ 1
L+ 1
L+ 1
L+ 1
L+ 1
L+ 1
L+ 1
EXP 3
L+ 1
L+ 1
L+ 1
EXP 3
L+ 1
L+ 1
L+ 1
EXP 3
L+ 1
L+ 1
L+ 1
EXP 3
L+ 1
L+ 1
L+ 1
EXP 3
L+ 1
L+ 1
L+ 1
L+ 1
L+ 1
L+ 1
L+ 1
EXP 3
L+ 1
L+ 1
L+ 1
L+ 1
L+ 1
L+ 1
L+ 1
L+ 1
L+ 1
L+ 1
EXP 3
L+ 1
L+ 1
L+ 1
EXP 3
L+ 1
L+ 1
L+ 1
EXP 3
L+ 1
L+ 1
L+ 1
L+ 1
L+ 1
L+ 1
L+ 1
L+ 1
L+ 1
L+ 1
L+ 1
L= 1
L+ 1
L+ 1
L+ 1
L+ 1
L+ 1
L+ 1
L+ 1
L+ 1
L+ 1
L+ 1
L+ 1
L+ 1
L+ 1
L+ 1
L+ 1
L+ 1
L+ 1
L+ 1
L+ 1
L+ 1
L+ 1
L+ 1
L+ 1
L+ 1
L+ 1
L+ 1
L+ 1
L+ 1
L+ 1
L+ 1
L+ 1
L+ 1
L+ 1
L+ 1
L+ 1
L+ 1
L+ 1
L+ 1
L+ 1
L+ 1
L+ 1
L+ 1
L+ 1
L+ 1
L+ 1
L+ 1
L+ 1
L+ 1
L+ 1
L+ 1
L+ 1
L+ 1
L+ 1
L+ 1
L+ 1
L+ 1
L+ 1
L+ 1
L+ 1
L+ 1
L+ 1
L+ 1
L+ 1
L+ 1
L+ 1
L+ 1
L+ 1
L+ 1
L+ 1
L+ 1
L+ 1
L+ 1
L+ 1
L+ 1
L+ 1
L+ 1
L+ 1
L+ 1
L+ 1
L+ 1
L+ 1
L+ 1
L+ 1
L+ 1
L+ 1
L+ 1
L+ 1
L+ 1
L+ 1
L+ 1
L+ 1
L+ 1
L+ 1
L+ 1
L+ 1
L+ 1
L+ 1
L+ 1
L+ 1
L+ 1
L+ 1
L+ 1
L+ 1
L+ 1
L+ 1
L+ 1
L+ 1
L+ 1
L+ 1
L+ 1
L+ 1
L+ 1
L+ 1
L+ 1
L+ 1
L+ 1
L+ 1
L+ 1
L+ 1
L+ 1
L+ 1
L+ 1
L+ 1
L+ 1
L+ 1
L+ 1
L+ 1
L+ 1
L+ 1
L+ 1
L+ 1
L+ 1
L+ 1
L+ 1
L+ 1
L+ 1
L+ 1
L+ 1
L+ 1
L+ 1
L+ 1
L+ 1
L+ 1
L+ 1
L+ 1
L+ 1
L+ 1
L+ 1
L+ 1
L+ 1
L+ 1
L+ 1
L+ 1
L+ 1
L+ 1
L+ 1
L+ 1
L+ 1
L+ 1
L+ 1
L+ 1
L+ 1
L+ 1
L+ 1
L+ 1
L+ 1
L+ 1
L+ 1
L+ 1
L+ 1
L+ 1
L+ 1
L+ 1
L+ 1
L+ 1
L+ 1
L+ 1
L+ 1
L+ 1
L+ 1
L+ 1
L+ 1
L+ 1
L+ 1
L+ 1
L+ 1
L+ 1
L+ 1
L+ 1
L+ 1
L+ 1
L+ 1
L+ 1
L+ 1
L+ 1
L+ 1
L+ 1
L+ 1
L+ 1
L+ 1
L+ 1
L+ 1
L+ 1
L+ 1
L+ 1
L+ 1
L+ 1
L+ 1
L+ 1
L+ 1
L+ 1
L+ 1
L+ 1
L+ 1
L+ 1
L+ 1
L+ 1
L+ 1
L+ 1
L+ 1
L+ 1
L+ 1
L+ 1
L+ 1
L+ 1
L+ 1
L+ 1
L+ 1
L+ 1
L+ 1
L+ 1
L+ 1
L+ 1
L+ 1
L+ 1
L+ 1
L+ 1
L+ 1
L+ 1
L+ 1
L+ 1
L+ 1
L+ 1
L+ 1
L+ 1
L+ 1
L+ 1
L+ 1
L+ 1
L+ 1
L+ 1
L+ 1
L+ 1
L+ 1
L+ 1
L+ 1
L+ 1
L+ 1
L+ 1
L+ 1
L+ 1
L+ 1
L+ 1
L+ 1
L+ 1
L+ 1
L+ 1
L+ 1
L+ 1
L+ 1
L+ 1
L+ 1
L+ 1
L+ 1
L+ 1
L+ 1
L+ 1
L+ 1
L+ 1
L+ 1
L+ 1
L+ 1
L+ 1
L+ 1
L+ 1
L+ 1
L+ 1
L+ 1
L+ 1
L+ 1
L+ 1
L+ 1
L+ 1
L+ 1
L+ 1
L+ 1
L+ 1
L+ 1
L+ 1
L+ 1
L+ 1
L+ 1
L+ 1
L+ 1
L+ 1
L+ 1
L+ 1
L+ 1
L+ 1
L+ 1
L+ 1
L+ 1
L+ 1
L+ 1
L+ 1
L+ 1
L+ 1
L+ 1
L+ 1
L+ 1
L+ 1
L+ 1
L+ 1
L+ 1
L+ 1
L+ 1
L+ 1
L+ 1
L+ 1
L+ 1
L+ 1
L+ 1
L+ 1
L+ 1
L+ 1
L+ 1
L+ 1
L+ 1
L+ 1
L+ 1
L+ 1
L+ 1
L+ 1
L+ 1
L+ 1
L+ 1
L+ 1
L+ 1
L+ 1
L+ 1
L+ 1
L+ 1
L+ 1
L+ 1
L+ 1
L+ 1
L+ 1
L+ 1
L+ 1
L+ 1
L+ 1
L+ 1
L+ 1
L+ 1
L+ 1
L+ 1
L+ 1
L+ 1
L+ 1
L+ 1
L+ 1
L+ 1
L+ 1
L+ 1
L+ 1
L+ 1
L+ 1
L+ 1
L+ 1
L+ 1
L+ 1
L+ 1
L+ 1
L+ 1
L+ 1
L+ 1

OBJACOORD
1
86 -1.0

ACOORD
1520
0 0 -10.0
1 0 1.0
42 0 -1.0
47 0 1.0
246 0 -10.0
486 0 1.0
0 1 -15.0
6 1 1.0
43 1 -1.0
49 1 1.0
246 1 -15.0
491 1 1.0
0 2 -18.0
10 2 1.0
44 2 -1.0
51 2 1.0
246 2 -18.0
495 2 1.0
0 3 -19.0
22 3 1.0
45 3 -1.0
55 3 1.0
246 3 -19.0
507 3 1.0
0 4 35.0
26 4 1.0
36 4 1.0
56 4 -1.0
511 4 1.0
0 5 28.0
28 5 1.0
37 5 1.0
57 5 -1.0
513 5 1.0
0 6 -16.0
29 6 1.0
46 6 -1.0
58 6 1.0
246 6 -16.0
514 6 1.0
0 7 2.0
32 7 1.0
38 7 1.0
255 7 -1.0
517 7 1.0
0 8 3.0
33 8 1.0
39 8 1.0
256 8 -1.0
518 8 1.0
0 9 5.0
34 9 1.0
40 9 1.0
257 9 -1.0
519 9 1.0
0 10 4.0
35 10 1.0
41 10 1.0
258 10 -1.0
520 10 1.0
0 11 -6.0
71 11 -148.75
75 11 -148.75
151 11 -25.0
247 11 1.0
574 11 1.0
575 11 -1.0
0 12 -40.0
72 12 -148.75
76 12 -148.75
152 12 15.0
247 12 1.0
576 12 1.0
577 12 -1.0
0 13 -46.0
73 13 -148.75
77 13 -148.75
153 13 15.0
247 13 1.0
578 13 1.0
579 13 -1.0
0 14 -7.0
79 14 -254.045833333333
83 14 -166.25
155 14 -56.0
248 14 1.0
582 14 1.0
583 14 -1.0
0 15 -30.0
80 15 -254.045833333333
84 15 -166.25
156 15 -36.0
248 15 1.0
584 15 1.0
585 15 -1.0
0 16 -37.0
81 16 -254.045833333333
85 16 -166.25
157 16 -36.0
248 16 1.0
586 16 1.0
587 16 -1.0
0 17 -7.0
87 17 -20.4166666666667
91 17 -20.4166666666667
95 17 -20.4166666666667
99 17 -20.4166666666667
159 17 -10.0
249 17 1.0
590 17 1.0
591 17 -1.0
0 18 -15.0
88 18 -20.4166666666667
92 18 -20.4166666666667
96 18 -20.4166666666667
100 18 -20.4166666666667
249 18 1.0
592 18 1.0
593 18 -1.0
0 19 -22.0
89 19 -20.4166666666667
93 19 -20.4166666666667
97 19 -20.4166666666667
101 19 -20.4166666666667
249 19 1.0
594 19 1.0
595 19 -1.0
0 20 -11.0
103 20 -18.75
107 20 -18.75
163 20 -10.0
250 20 1.0
598 20 1.0
599 20 -1.0
0 21 -13.0
104 21 -18.75
108 21 -18.75
164 21 -5.0
250 21 1.0
600 21 1.0
601 21 -1.0
0 22 -24.0
105 22 -18.75
109 22 -18.75
165 22 -5.0
250 22 1.0
602 22 1.0
603 22 -1.0
0 23 -10.0
111 23 -17.8125
115 23 -17.8125
119 23 -17.8125
123 23 -17.8125
167 23 -15.0
251 23 1.0
606 23 1.0
607 23 -1.0
0 24 -13.0
112 24 -17.8125
116 24 -17.8125
120 24 -17.8125
124 24 -17.8125
168 24 -5.0
251 24 1.0
608 24 1.0
609 24 -1.0
0 25 -23.0
113 25 -17.8125
117 25 -17.8125
121 25 -17.8125
125 25 -17.8125
169 25 -5.0
251 25 1.0
610 25 1.0
611 25 -1.0
0 26 -9.0
127 26 -66.9375
131 26 -15.9375
171 26 -29.0
252 26 1.0
614 26 1.0
615 26 -1.0
0 27 -30.0
128 27 -66.9375
132 27 -15.9375
172 27 6.0
252 27 1.0
616 27 1.0
617 27 -1.0
0 28 -39.0
129 28 -66.9375
133 28 -15.9375
173 28 6.0
252 28 1.0
618 28 1.0
619 28 -1.0
0 29 -8.0
135 29 -94.4571428571429
139 29 -57.0
175 29 -29.0
253 29 1.0
622 29 1.0
623 29 -1.0
0 30 -20.0
136 30 -94.4571428571429
140 30 -57.0
176 30 -4.0
253 30 1.0
624 30 1.0
625 30 -1.0
0 31 -28.0
137 31 -94.4571428571429
141 31 -57.0
177 31 -4.0
253 31 1.0
626 31 1.0
627 31 -1.0
0 32 -8.0
143 32 -39.4285714285714
147 32 -39.4285714285714
179 32 -15.0
254 32 1.0
630 32 1.0
631 32 -1.0
0 33 -15.0
144 33 -39.4285714285714
148 33 -39.4285714285714
180 33 5.0
254 33 1.0
632 33 1.0
633 33 -1.0
0 34 -23.0
145 34 -39.4285714285714
149 34 -39.4285714285714
181 34 5.0
254 34 1.0
634 34 1.0
635 34 -1.0
0 35 -1.0
255 35 -1.0
259 35 1.0
700 35 1.0
701 35 -1.0
0 36 5.0
261 36 -1.0
707 36 1.0
0 37 -2.0
256 37 -1.0
300 37 0.5
301 37 -0.5
303 37 -1.0
712 37 1.0
713 37 -1.0
0 38 -10.0
257 38 -1.0
339 38 1.0
340 38 -1.0
342 38 -1.0
730 38 1.0
731 38 -1.0
0 39 -5.0
258 39 -1.0
266 39 -1.0
732 39 1.0
733 39 -1.0
0 40 40.0
337 40 -1.0
338 40 1.0
339 40 -1.0
340 40 1.0
343 40 -1.0
740 40 1.0
0 41 15.0
347 41 -1.0
349 41 -1.0
741 41 1.0
0 42 10.0
353 42 -1.0
355 42 -1.0
742 42 1.0
0 43 30.0
359 43 -1.0
363 43 -1.0
366 43 -1.0
743 43 1.0
0 44 35.0
367 44 -1.0
368 44 1.0
370 44 -1.0
744 44 1.0
0 45 20.0
371 45 -1.0
372 45 1.0
374 45 -1.0
745 45 1.0
0 46 25.0
378 46 -1.0
380 46 -1.0
746 46 1.0
0 47 15.0
384 47 -1.0
386 47 -1.0
747 47 1.0
0 48 30.0
272 48 -1.0
755 48 1.0
0 49 -1.0
417 49 0.5
418 49 -0.5
420 49 -1.0
760 49 1.0
761 49 -1.0
0 50 80.0
275 50 -1.0
769 50 1.0
0 51 285.0
425 51 -1.0
427 51 -1.0
770 51 1.0
0 52 290.0
431 52 -1.0
433 52 -1.0
771 52 1.0
0 53 280.0
437 53 -1.0
439 53 -1.0
772 53 1.0
0 54 290.0
440 54 -1.0
441 54 1.0
443 54 -1.0
773 54 1.0
0 55 350.0
444 55 -1.0
445 55 1.0
447 55 -1.0
774 55 1.0
0 56 -5.0
279 56 -1.0
280 56 40.0
281 56 3.71357206670431
448 56 1.0
458 56 1.0
459 56 1.0
460 56 1.0
775 56 1.0
776 56 -1.0
0 57 -8.0
285 57 -1.0
286 57 40.0
287 57 4.45628648004517
448 57 1.0
458 57 1.0
459 57 1.0
460 57 1.0
777 57 1.0
778 57 -1.0
0 58 -6.0
288 58 -1.0
289 58 -1.0
290 58 4.45628648004517
291 58 3.34221486003388
449 58 -1.0
458 58 -1.0
461 58 1.0
462 58 1.0
779 58 1.0
780 58 -1.0
0 59 -10.0
295 59 -1.0
296 59 4.45628648004517
297 59 2.54515263975353
452 59 -1.0
459 59 -1.0
463 59 1.0
781 59 1.0
782 59 -1.0
0 60 -6.0
298 60 -1.0
299 60 -1.0
300 60 -1.0
301 60 -1.0
302 60 4.45628648004517
303 60 30.0
304 60 15.0
454 60 -1.0
460 60 -1.0
464 60 1.0
465 60 1.0
466 60 1.0
783 60 1.0
784 60 -1.0
0 61 -7.0
308 61 -1.0
309 61 3.34221486003388
310 61 1.83548069293539
449 61 1.0
450 61 -1.0
461 61 -1.0
467 61 1.0
785 61 1.0
786 61 -1.0
0 62 -4.0
314 62 -1.0
315 62 3.34221486003388
316 62 1.32154609891348
449 62 1.0
451 62 -1.0
462 62 -1.0
468 62 1.0
787 62 1.0
788 62 -1.0
0 63 -5.0
320 63 -1.0
321 63 2.54515263975353
322 63 1.26558121681553
452 63 1.0
453 63 -1.0
463 63 -1.0
469 63 1.0
470 63 1.0
789 63 1.0
790 63 -1.0
0 64 -2.0
323 64 -1.0
324 64 -1.0
325 64 15.0
326 64 13.5
454 64 1.0
455 64 -1.0
464 64 -1.0
791 64 1.0
792 64 -1.0
0 65 -4.0
327 65 -1.0
328 65 -1.0
329 65 15.0
330 65 9.0
454 65 1.0
456 65 -1.0
465 65 -1.0
471 65 1.0
472 65 1.0
793 65 1.0
794 65 -1.0
0 66 -3.0
334 66 -1.0
335 66 15.0
336 66 3.04984759446376
454 66 1.0
457 66 -1.0
466 66 -1.0
473 66 1.0
474 66 1.0
475 66 1.0
795 66 1.0
796 66 -1.0
0 67 -7.0
337 67 -1.0
338 67 -1.0
339 67 -1.0
340 67 -1.0
341 67 1.83548069293539
342 67 20.0
343 67 20.0
450 67 1.0
467 67 -1.0
797 67 1.0
798 67 -1.0
0 68 -3.0
347 68 -1.0
348 68 1.32154609891348
349 68 0.842233385663186
451 68 1.0
468 68 -1.0
799 68 1.0
800 68 -1.0
0 69 -2.0
353 69 -1.0
354 69 1.26558121681553
355 69 0.572481933717686
453 69 1.0
469 69 -1.0
801 69 1.0
802 69 -1.0
0 70 -4.0
359 70 -1.0
363 70 -1.0
364 70 1.26558121681553
365 70 33.5
366 70 2.30162356062425
453 70 1.0
455 70 1.0
470 70 -1.0
803 70 1.0
804 70 -1.0
0 71 -2.0
367 71 -1.0
368 71 -1.0
369 71 9.0
370 71 9.0
456 71 1.0
471 71 -1.0
805 71 1.0
806 71 -1.0
0 72 -3.0
371 72 -1.0
372 72 -1.0
373 72 9.0
374 72 9.0
456 72 1.0
472 72 -1.0
807 72 1.0
808 72 -1.0
0 73 -5.0
378 73 -1.0
379 73 3.04984759446376
380 73 1.04900943706034
457 73 1.0
473 73 -1.0
809 73 1.0
810 73 -1.0
0 74 -2.0
384 74 -1.0
385 74 3.04984759446376
386 74 1.11894339953103
457 74 1.0
474 74 -1.0
811 74 1.0
812 74 -1.0
0 75 -1.0
390 75 -1.0
391 75 3.04984759446376
392 75 1.18887736200171
457 75 1.0
475 75 -1.0
476 75 -1.0
479 75 1.0
480 75 1.0
813 75 1.0
814 75 -1.0
0 76 -2.0
396 76 -1.0
397 76 1.18887736200171
398 76 0.78338879230327
476 76 1.0
479 76 -1.0
815 76 1.0
816 76 -1.0
0 77 -9.0
402 77 -1.0
403 77 1.18887736200171
404 77 0.940066550763924
476 77 1.0
480 77 -1.0
817 77 1.0
818 77 -1.0
0 78 -5.0
405 78 -1.0
406 78 -1.0
407 78 0.940066550763924
408 78 0.705049913072943
477 78 -1.0
481 78 1.0
482 78 1.0
819 78 1.0
820 78 -1.0
0 79 -2.0
412 79 -1.0
413 79 0.940066550763924
414 79 0.994083415506506
478 79 -1.0
483 79 1.0
821 79 1.0
822 79 -1.0
0 80 -10.0
415 80 -1.0
416 80 -1.0
417 80 -1.0
418 80 -1.0
419 80 0.940066550763924
420 80 30.0
421 80 15.0
484 80 1.0
485 80 1.0
823 80 1.0
824 80 -1.0
0 81 -4.0
425 81 -1.0
426 81 0.705049913072943
427 81 0.666992981045719
477 81 1.0
481 81 -1.0
825 81 1.0
826 81 -1.0
0 82 -7.0
431 82 -1.0
432 82 0.705049913072943
433 82 0.480234946352917
477 82 1.0
482 82 -1.0
827 82 1.0
828 82 -1.0
0 83 -4.0
437 83 -1.0
438 83 0.994083415506506
439 83 0.690184503917672
478 83 1.0
483 83 -1.0
829 83 1.0
830 83 -1.0
0 84 -2.0
440 84 -1.0
441 84 -1.0
442 84 15.0
443 84 13.5
484 84 -1.0
831 84 1.0
832 84 -1.0
0 85 -8.0
444 85 -1.0
445 85 -1.0
446 85 15.0
447 85 9.0
485 85 -1.0
833 85 1.0
834 85 -1.0
0 86 -1.0
1 87 -0.2
521 87 1.0
2 88 1.0
47 88 -1.0
59 88 1.0
150 88 -1.0
151 88 -1.0
152 88 -1.0
153 88 -1.0
487 88 1.0
2 89 -0.2
70 89 0.8
71 89 0.85
72 89 0.8
73 89 0.85
74 89 -0.8
75 89 -0.85
76 89 -0.8
77 89 -0.85
522 89 1.0
3 90 1.0
47 90 -1.0
60 90 1.0
154 90 -1.0
155 90 -1.0
156 90 -1.0
157 90 -1.0
488 90 1.0
3 91 -0.2
67 91 -1.0
78 91 0.9
79 91 0.95
80 91 0.9
81 91 0.95
82 91 -0.9
83 91 -0.95
84 91 -0.9
85 91 -0.95
523 91 1.0
4 92 1.0
48 92 1.0
59 92 -1.0
489 92 1.0
4 93 -0.2
70 93 -1.0
71 93 -1.0
72 93 -1.0
73 93 -1.0
74 93 1.0
75 93 1.0
76 93 1.0
77 93 1.0
524 93 1.0
5 94 1.0
48 94 -1.0
255 94 1.0
490 94 1.0
5 95 -0.2
525 95 1.0
6 96 -0.5
526 96 1.0
7 97 1.0
49 97 -1.0
60 97 1.0
154 97 -1.0
155 97 -1.0
156 97 -1.0
157 97 -1.0
492 97 1.0
7 98 -0.5
67 98 1.0
527 98 1.0
8 99 1.0
50 99 1.0
60 99 -1.0
493 99 1.0
8 100 -0.7
78 100 -1.0
79 100 -1.0
80 100 -1.0
81 100 -1.0
82 100 1.0
83 100 1.0
84 100 1.0
85 100 1.0
528 100 1.0
9 101 1.0
50 101 -1.0
256 101 1.0
494 101 1.0
9 102 -0.7
529 102 1.0
10 103 -1.2
530 103 1.0
11 104 1.0
51 104 -1.0
61 104 1.0
158 104 -1.0
159 104 -1.0
160 104 -1.0
161 104 -1.0
496 104 1.0
11 105 -1.2
86 105 0.85
87 105 0.98
88 105 0.85
89 105 0.98
90 105 0.85
91 105 0.98
92 105 0.85
93 105 0.98
94 105 -0.85
95 105 -0.98
96 105 -0.85
97 105 -0.98
98 105 -0.85
99 105 -0.98
100 105 -0.85
101 105 -0.98
531 105 1.0
12 106 1.0
49 106 1.0
61 106 -1.0
497 106 1.0
12 107 -0.5
86 107 -1.0
87 107 -1.0
88 107 -1.0
89 107 -1.0
94 107 1.0
95 107 1.0
96 107 1.0
97 107 1.0
532 107 1.0
13 108 1.0
50 108 1.0
61 108 -1.0
498 108 1.0
13 109 -0.7
90 109 -1.0
91 109 -1.0
92 109 -1.0
93 109 -1.0
98 109 1.0
99 109 1.0
100 109 1.0
101 109 1.0
533 109 1.0
14 110 1.0
51 110 -1.0
62 110 1.0
162 110 -1.0
163 110 -1.0
164 110 -1.0
165 110 -1.0
499 110 1.0
14 111 -1.2
102 111 0.85
103 111 0.9
104 111 0.85
105 111 0.9
106 111 -0.85
107 111 -0.9
108 111 -0.85
109 111 -0.9
534 111 1.0
15 112 1.0
52 112 1.0
62 112 -1.0
500 112 1.0
15 113 -1.2
102 113 -1.0
103 113 -1.0
104 113 -1.0
105 113 -1.0
106 113 1.0
107 113 1.0
108 113 1.0
109 113 1.0
535 113 1.0
16 114 1.0
52 114 -1.0
64 114 1.0
170 114 -1.0
171 114 -1.0
172 114 -1.0
173 114 -1.0
501 114 1.0
16 115 -1.2
68 115 -1.0
126 115 0.8
127 115 0.85
128 115 0.8
129 115 0.85
130 115 -0.8
131 115 -0.85
132 115 -0.8
133 115 -0.85
536 115 1.0
17 116 1.0
52 116 -1.0
63 116 1.0
166 116 -1.0
167 116 -1.0
168 116 -1.0
169 116 -1.0
502 116 1.0
17 117 -1.2
110 117 0.75
111 117 0.95
112 117 0.9
113 117 0.95
114 117 0.75
115 117 0.95
116 117 0.9
117 117 0.95
118 117 -0.75
119 117 -0.95
120 117 -0.9
121 117 -0.95
122 117 -0.75
123 117 -0.95
124 117 -0.9
125 117 -0.95
537 117 1.0
18 118 1.0
53 118 1.0
63 118 -1.0
503 118 1.0
18 119 -0.3
110 119 -1.0
111 119 -1.0
112 119 -1.0
113 119 -1.0
118 119 1.0
119 119 1.0
120 119 1.0
121 119 1.0
538 119 1.0
19 120 1.0
54 120 1.0
63 120 -1.0
504 120 1.0
19 121 -0.9
114 121 -1.0
115 121 -1.0
116 121 -1.0
117 121 -1.0
122 121 1.0
123 121 1.0
124 121 1.0
125 121 1.0
539 121 1.0
20 122 1.0
53 122 -1.0
257 122 1.0
505 122 1.0
20 123 -0.3
540 123 1.0
21 124 1.0
54 124 -1.0
258 124 1.0
506 124 1.0
21 125 -0.9
541 125 1.0
22 126 -0.4
542 126 1.0
23 127 1.0
55 127 -1.0
64 127 1.0
170 127 -1.0
171 127 -1.0
172 127 -1.0
173 127 -1.0
508 127 1.0
23 128 -0.4
68 128 1.0
543 128 1.0
24 129 1.0
55 129 -1.0
65 129 1.0
174 129 -1.0
175 129 -1.0
176 129 -1.0
177 129 -1.0
509 129 1.0
24 130 -0.4
69 130 -1.0
134 130 0.85
135 130 0.95
136 130 0.85
137 130 0.95
138 130 -0.85
139 130 -0.95
140 130 -0.85
141 130 -0.95
544 130 1.0
25 131 1.0
56 131 1.0
64 131 -1.0
510 131 1.0
25 132 -1.6
126 132 -1.0
127 132 -1.0
128 132 -1.0
129 132 -1.0
130 132 1.0
131 132 1.0
132 132 1.0
133 132 1.0
545 132 1.0
26 133 -1.6
546 133 1.0
27 134 1.0
57 134 1.0
65 134 -1.0
512 134 1.0
27 135 -1.1
134 135 -1.0
135 135 -1.0
136 135 -1.0
137 135 -1.0
138 135 1.0
139 135 1.0
140 135 1.0
141 135 1.0
547 135 1.0
28 136 -1.1
548 136 1.0
29 137 -0.7
549 137 1.0
30 138 1.0
58 138 -1.0
66 138 1.0
178 138 -1.0
179 138 -1.0
180 138 -1.0
181 138 -1.0
515 138 1.0
30 139 -0.7
142 139 0.8
143 139 0.92
144 139 0.8
145 139 0.92
146 139 -0.8
147 139 -0.92
148 139 -0.8
149 139 -0.92
550 139 1.0
31 140 1.0
65 140 1.0
66 140 -1.0
174 140 -1.0
175 140 -1.0
176 140 -1.0
177 140 -1.0
516 140 1.0
31 141 -0.7
69 141 1.0
142 141 -1.0
143 141 -1.0
144 141 -1.0
145 141 -1.0
146 141 1.0
147 141 1.0
148 141 1.0
149 141 1.0
551 141 1.0
32 142 -0.2
552 142 1.0
33 143 -0.7
553 143 1.0
34 144 -0.3
554 144 1.0
35 145 -0.9
555 145 1.0
59 146 -1.0
556 146 1.0
60 147 -1.0
557 147 1.0
61 148 -1.0
558 148 1.0
62 149 -1.0
559 149 1.0
63 150 -1.0
560 150 1.0
64 151 -1.0
561 151 1.0
65 152 -1.0
562 152 1.0
66 153 -1.0
563 153 1.0
70 154 -148.75
74 154 -148.75
150 154 -25.0
247 154 1.0
572 154 1.0
573 154 -1.0
78 155 -254.045833333333
82 155 -166.25
154 155 -56.0
248 155 1.0
580 155 1.0
581 155 -1.0
86 156 -20.4166666666667
90 156 -20.4166666666667
94 156 -20.4166666666667
98 156 -20.4166666666667
158 156 -10.0
249 156 1.0
588 156 1.0
589 156 -1.0
102 157 -18.75
106 157 -18.75
162 157 -10.0
250 157 1.0
596 157 1.0
597 157 -1.0
110 158 -17.8125
114 158 -17.8125
118 158 -17.8125
122 158 -17.8125
166 158 -15.0
251 158 1.0
604 158 1.0
605 158 -1.0
126 159 -66.9375
130 159 -15.9375
170 159 -29.0
252 159 1.0
612 159 1.0
613 159 -1.0
134 160 -94.4571428571429
138 160 -57.0
174 160 -29.0
253 160 1.0
620 160 1.0
621 160 -1.0
142 161 -39.4285714285714
146 161 -39.4285714285714
178 161 -15.0
254 161 1.0
628 161 1.0
629 161 -1.0
182 162 -1.0
183 162 -1.0
184 162 -1.0
185 162 -1.0
214 162 1.0
215 162 1.0
216 162 1.0
217 162 1.0
246 162 -1.0
564 162 1.0
182 163 -46.0
636 163 1.0
637 163 -1.0
183 164 -40.0
215 164 -6.0
638 164 1.0
639 164 -1.0
184 165 -6.0
216 165 -40.0
640 165 1.0
641 165 -1.0
186 166 -1.0
187 166 -1.0
188 166 -1.0
189 166 -1.0
218 166 1.0
219 166 1.0
220 166 1.0
221 166 1.0
246 166 -1.0
565 166 1.0
186 167 -37.0
644 167 1.0
645 167 -1.0
187 168 -30.0
219 168 -7.0
646 168 1.0
647 168 -1.0
188 169 -7.0
220 169 -30.0
648 169 1.0
649 169 -1.0
190 170 -1.0
191 170 -1.0
192 170 -1.0
193 170 -1.0
222 170 1.0
223 170 1.0
224 170 1.0
225 170 1.0
246 170 -1.0
566 170 1.0
190 171 -22.0
652 171 1.0
653 171 -1.0
191 172 -15.0
223 172 -7.0
654 172 1.0
655 172 -1.0
192 173 -7.0
224 173 -15.0
656 173 1.0
657 173 -1.0
194 174 -1.0
195 174 -1.0
196 174 -1.0
197 174 -1.0
226 174 1.0
227 174 1.0
228 174 1.0
229 174 1.0
246 174 -1.0
567 174 1.0
194 175 -24.0
660 175 1.0
661 175 -1.0
195 176 -13.0
227 176 -11.0
662 176 1.0
663 176 -1.0
196 177 -11.0
228 177 -13.0
664 177 1.0
665 177 -1.0
198 178 -1.0
199 178 -1.0
200 178 -1.0
201 178 -1.0
230 178 1.0
231 178 1.0
232 178 1.0
233 178 1.0
246 178 -1.0
568 178 1.0
198 179 -23.0
668 179 1.0
669 179 -1.0
199 180 -13.0
231 180 -10.0
670 180 1.0
671 180 -1.0
200 181 -10.0
232 181 -13.0
672 181 1.0
673 181 -1.0
202 182 -1.0
203 182 -1.0
204 182 -1.0
205 182 -1.0
234 182 1.0
235 182 1.0
236 182 1.0
237 182 1.0
246 182 -1.0
569 182 1.0
202 183 -39.0
676 183 1.0
677 183 -1.0
203 184 -30.0
235 184 -9.0
678 184 1.0
679 184 -1.0
204 185 -9.0
236 185 -30.0
680 185 1.0
681 185 -1.0
206 186 -1.0
207 186 -1.0
208 186 -1.0
209 186 -1.0
238 186 1.0
239 186 1.0
240 186 1.0
241 186 1.0
246 186 -1.0
570 186 1.0
206 187 -28.0
684 187 1.0
685 187 -1.0
207 188 -20.0
239 188 -8.0
686 188 1.0
687 188 -1.0
208 189 -8.0
240 189 -20.0
688 189 1.0
689 189 -1.0
210 190 -1.0
211 190 -1.0
212 190 -1.0
213 190 -1.0
242 190 1.0
243 190 1.0
244 190 1.0
245 190 1.0
246 190 -1.0
571 190 1.0
210 191 -23.0
692 191 1.0
693 191 -1.0
211 192 -15.0
243 192 -8.0
694 192 1.0
695 192 -1.0
212 193 -8.0
244 193 -15.0
696 193 1.0
697 193 -1.0
217 194 -46.0
642 194 1.0
643 194 -1.0
221 195 -37.0
650 195 1.0
651 195 -1.0
225 196 -22.0
658 196 1.0
659 196 -1.0
229 197 -24.0
666 197 1.0
667 197 -1.0
233 198 -23.0
674 198 1.0
675 198 -1.0
237 199 -39.0
682 199 1.0
683 199 -1.0
241 200 -28.0
690 200 1.0
691 200 -1.0
245 201 -23.0
698 201 1.0
699 201 -1.0
259 202 -1.0
276 202 1.0
280 202 -1.0
702 202 1.0
259 203 -1.0
282 203 1.0
286 203 -1.0
703 203 1.0
260 204 -1.0
279 204 -1.0
281 204 -1.0
704 204 1.0
260 205 -1.0
285 205 -1.0
287 205 -1.0
705 205 1.0
260 206 1.0
261 206 1.0
706 206 1.0
261 207 -1.0
262 207 1.0
708 207 1.0
262 208 -1.0
288 208 0.75
289 208 -0.75
290 208 -1.0
709 208 1.0
262 209 -1.0
292 209 1.0
296 209 -1.0
710 209 1.0
262 210 -1.0
298 210 1.0
299 210 -1.0
302 210 -1.0
711 210 1.0
263 211 1.0
288 211 -1.0
289 211 1.0
291 211 -1.0
714 211 1.0
263 212 -1.0
305 212 1.0
309 212 -1.0
717 212 1.0
263 213 -1.0
311 213 1.0
315 213 -1.0
718 213 1.0
264 214 1.0
298 214 -1.0
299 214 1.0
300 214 -1.0
301 214 1.0
304 214 -1.0
716 214 1.0
264 215 -1.0
323 215 0.9
324 215 -0.9
325 215 -1.0
719 215 1.0
264 216 -1.0
327 216 0.6
328 216 -0.6
329 216 -1.0
720 216 1.0
264 217 -1.0
331 217 1.0
335 217 -1.0
721 217 1.0
265 218 1.0
320 218 -1.0
322 218 -1.0
724 218 1.0
265 219 -1.0
350 219 1.0
354 219 -1.0
728 219 1.0
265 220 -1.0
356 220 1.0
364 220 -1.0
729 220 1.0
266 221 -1.0
323 221 -1.0
324 221 1.0
326 221 -1.0
725 221 1.0
266 222 1.0
360 222 1.0
365 222 -1.0
734 222 1.0
267 223 1.0
327 223 -1.0
328 223 1.0
330 223 -1.0
726 223 1.0
267 224 -1.0
367 224 1.0
368 224 -1.0
369 224 -1.0
735 224 1.0
267 225 -1.0
371 225 1.0
372 225 -1.0
373 225 -1.0
736 225 1.0
268 226 1.0
334 226 -1.0
336 226 -1.0
727 226 1.0
268 227 -1.0
375 227 1.0
379 227 -1.0
737 227 1.0
268 228 -1.0
381 228 1.0
385 228 -1.0
738 228 1.0
268 229 -1.0
387 229 1.0
391 229 -1.0
739 229 1.0
269 230 1.0
390 230 -1.0
392 230 -1.0
748 230 1.0
269 231 -1.0
270 231 1.0
749 231 1.0
270 232 -1.0
393 232 1.0
397 232 -1.0
750 232 1.0
270 233 -1.0
399 233 1.0
403 233 -1.0
751 233 1.0
271 234 -1.0
396 234 -1.0
398 234 -1.0
752 234 1.0
271 235 -1.0
402 235 -1.0
404 235 -1.0
753 235 1.0
271 236 1.0
272 236 1.0
754 236 1.0
272 237 -1.0
273 237 1.0
756 237 1.0
273 238 -1.0
405 238 0.75
406 238 -0.75
407 238 -1.0
757 238 1.0
273 239 -1.0
409 239 1.0
413 239 -1.0
758 239 1.0
273 240 -1.0
415 240 1.0
416 240 -1.0
419 240 -1.0
759 240 1.0
274 241 1.0
405 241 -1.0
406 241 1.0
408 241 -1.0
762 241 1.0
274 242 -1.0
422 242 1.0
426 242 -1.0
765 242 1.0
274 243 -1.0
428 243 1.0
432 243 -1.0
766 243 1.0
275 244 1.0
415 244 -1.0
416 244 1.0
417 244 -1.0
418 244 1.0
421 244 -1.0
764 244 1.0
275 245 -1.0
440 245 0.9
441 245 -0.9
442 245 -1.0
767 245 1.0
275 246 -1.0
444 246 0.6
445 246 -0.6
446 246 -1.0
768 246 1.0
278 247 1.0
279 247 1.0
284 248 1.0
285 248 1.2
294 249 1.0
295 249 1.5
295 250 -1.0
297 250 -1.0
317 250 1.0
321 250 -1.0
715 250 1.0
307 251 1.0
308 251 1.25
308 252 -1.0
310 252 -1.0
337 252 0.9
338 252 -0.9
341 252 -1.0
722 252 1.0
313 253 1.0
314 253 0.9
314 254 -1.0
316 254 -1.0
344 254 1.0
348 254 -1.0
723 254 1.0
319 255 1.0
320 255 1.0
333 256 1.0
334 256 1.1
346 257 1.0
347 257 1.0
352 258 1.0
353 258 0.7
358 259 1.0
359 259 0.65
362 260 1.0
363 260 0.65
377 261 1.0
378 261 0.75
383 262 1.0
384 262 0.8
389 263 1.0
390 263 0.85
395 264 1.0
396 264 1.0
401 265 1.0
402 265 1.2
411 266 1.0
412 266 1.5
412 267 -1.0
414 267 -1.0
434 267 1.0
438 267 -1.0
763 267 1.0
424 268 1.0
425 268 1.25
430 269 1.0
431 269 0.9
436 270 1.0
437 270 1.0

BCOORD
352
36 -0.4
37 -0.3
38 -0.2
39 -0.5
40 -0.2
41 -0.3
42 35.0
43 36.0
44 25.0
45 24.0
46 30.0
70 148.75
71 148.75
72 148.75
73 148.75
74 148.75
75 148.75
76 148.75
77 148.75
78 254.045833333333
79 254.045833333333
80 254.045833333333
81 254.045833333333
82 166.25
83 166.25
84 166.25
85 166.25
86 20.4166666666667
87 20.4166666666667
88 20.4166666666667
89 20.4166666666667
90 20.4166666666667
91 20.4166666666667
92 20.4166666666667
93 20.4166666666667
94 20.4166666666667
95 20.4166666666667
96 20.4166666666667
97 20.4166666666667
98 20.4166666666667
99 20.4166666666667
100 20.4166666666667
101 20.4166666666667
102 18.75
103 18.75
104 18.75
105 18.75
106 18.75
107 18.75
108 18.75
109 18.75
110 17.8125
111 17.8125
112 17.8125
113 17.8125
114 17.8125
115 17.8125
116 17.8125
117 17.8125
118 17.8125
119 17.8125
120 17.8125
121 17.8125
122 17.8125
123 17.8125
124 17.8125
125 17.8125
126 66.9375
127 66.9375
128 66.9375
129 66.9375
130 15.9375
131 15.9375
132 15.9375
133 15.9375
134 94.4571428571429
135 94.4571428571429
136 94.4571428571429
137 94.4571428571429
138 57.0
139 57.0
140 57.0
141 57.0
142 39.4285714285714
143 39.4285714285714
144 39.4285714285714
145 39.4285714285714
146 39.4285714285714
147 39.4285714285714
148 39.4285714285714
149 39.4285714285714
150 35.0
151 35.0
152 35.0
153 35.0
154 96.0
155 96.0
156 96.0
157 96.0
158 25.0
159 25.0
160 25.0
161 25.0
162 25.0
163 25.0
164 25.0
165 25.0
166 25.0
167 25.0
168 25.0
169 25.0
170 49.0
171 49.0
172 49.0
173 49.0
174 54.0
175 54.0
176 54.0
177 54.0
178 30.0
179 30.0
180 30.0
181 30.0
182 46.0
183 46.0
184 46.0
185 46.0
186 37.0
187 37.0
188 37.0
189 37.0
190 22.0
191 22.0
192 22.0
193 22.0
194 24.0
195 24.0
196 24.0
197 24.0
198 23.0
199 23.0
200 23.0
201 23.0
202 39.0
203 39.0
204 39.0
205 39.0
206 28.0
207 28.0
208 28.0
209 28.0
210 23.0
211 23.0
212 23.0
213 23.0
246 4000.0
247 -1.0
248 -1.0
249 -1.0
250 -1.0
251 -1.0
252 -1.0
253 -1.0
254 -1.0
276 1.0
277 1.0
279 1.0
282 1.0
283 1.0
285 1.0
288 1.0
289 1.0
292 1.0
293 1.0
295 1.0
298 1.0
299 1.0
300 1.0
301 1.0
305 1.0
306 1.0
308 1.0
311 1.0
312 1.0
314 1.0
317 1.0
318 1.0
320 1.0
323 1.0
324 1.0
327 1.0
328 1.0
331 1.0
332 1.0
334 1.0
337 1.0
338 1.0
339 1.0
340 1.0
344 1.0
345 1.0
347 1.0
350 1.0
351 1.0
353 1.0
356 1.0
357 1.0
359 1.0
360 1.0
361 1.0
363 1.0
367 1.0
368 1.0
371 1.0
372 1.0
375 1.0
376 1.0
378 1.0
381 1.0
382 1.0
384 1.0
387 1.0
388 1.0
390 1.0
393 1.0
394 1.0
396 1.0
399 1.0
400 1.0
402 1.0
405 1.0
406 1.0
409 1.0
410 1.0
412 1.0
415 1.0
416 1.0
417 1.0
418 1.0
422 1.0
423 1.0
425 1.0
428 1.0
429 1.0
431 1.0
434 1.0
435 1.0
437 1.0
440 1.0
441 1.0
444 1.0
445 1.0
448 -1.0
573 1.0
575 1.0
577 1.0
579 1.0
581 1.0
583 1.0
585 1.0
587 1.0
589 1.0
591 1.0
593 1.0
595 1.0
597 1.0
599 1.0
601 1.0
603 1.0
605 1.0
607 1.0
609 1.0
611 1.0
613 1.0
615 1.0
617 1.0
619 1.0
621 1.0
623 1.0
625 1.0
627 1.0
629 1.0
631 1.0
633 1.0
635 1.0
637 1.0
639 1.0
641 1.0
643 1.0
645 1.0
647 1.0
649 1.0
651 1.0
653 1.0
655 1.0
657 1.0
659 1.0
661 1.0
663 1.0
665 1.0
667 1.0
669 1.0
671 1.0
673 1.0
675 1.0
677 1.0
679 1.0
681 1.0
683 1.0
685 1.0
687 1.0
689 1.0
691 1.0
693 1.0
695 1.0
697 1.0
699 1.0
701 40.0
713 30.0
731 20.0
733 20.0
761 30.0
776 1.0
778 1.0
780 1.0
782 1.0
784 1.0
786 1.0
788 1.0
790 1.0
792 1.0
794 1.0
796 1.0
798 1.0
800 1.0
802 1.0
804 1.0
806 1.0
808 1.0
810 1.0
812 1.0
814 1.0
816 1.0
818 1.0
820 1.0
822 1.0
824 1.0
826 1.0
828 1.0
830 1.0
832 1.0
834 1.0
